Ti2 O4
1.0
   4.5899999999999999    0.0000000000000000    0.0000000000000003
   0.0000000000000007    4.5899999999999999    0.0000000000000003
   0.0000000000000000    0.0000000000000000    2.9600000000000000
Ti O
2 4
direct
   0.0000000000000000    0.0000000000000000    0.0000000000000000 Ti
   0.5000000000000000    0.5000000000000000    0.4999999999999999 Ti
   0.3050000000000000    0.3050000000000000   -0.0000000000000000 O
  -0.3050000000000000   -0.3050000000000000    0.0000000000000000 O
   0.1950000000000000    0.8049999999999999    0.4999999999999999 O
   0.8049999999999999    0.1950000000000000    0.4999999999999999 O
