SYSTEM  = Va_O1_q2
PREC    = Accurate
ENCUT   = 650
EDIFF   = 1E-7
EDIFFG  = -0.02
ISMEAR  = 0
SIGMA   = 0.05
LREAL   = .FALSE.
LDAU    = .TRUE.
LDAUTYPE= 2
LDAUL   = 3 -1
LDAUU   = 4.5 0.0
LDAUJ   = 0.5 0.0
LMAXMIX = 4
ISPIN   = 2
MAGMOM  = 2.00 2.00 2.00 2.00 2.00 2.00 2.00 2.00 2.00 2.00 2.00 2.00 2.00 2.00 2.00 2.00 -2.00 -2.00 -2.00 -2.00 -2.00 -2.00 -2.00 -2.00 -2.00 -2.00 -2.00 -2.00 -2.00 -2.00 -2.00 -2.00 0.00 0.00 0.00 0.00 0.00 0.00 0.00 0.00 0.00 0.00 0.00 0.00 0.00 0.00 0.00 0.00 0.00 0.00 0.00 0.00 0.00 0.00 0.00 0.00 0.00 0.00 0.00 0.00 0.00 0.00 0.00 0.00 0.00 0.00 0.00 0.00 0.00 0.00 0.00 0.00 0.00 0.00 0.00 0.00 0.00 0.00 0.00 0.00 0.00 0.00 0.00 0.00 0.00 0.00 0.00 0.00 0.00 0.00 0.00 0.00 0.00 0.00 0.00
NELECT  = 824
NSW     = 100
IBRION  = 2
ISIF    = 2
NCORE   = 8
LWAVE   = .FALSE.
LCHARG  = .TRUE.
LORBIT  = 11
