U32 O63
1.0
  10.9399999999999995    0.0000000000000000    0.0000000000000000
   0.0000000000000000   10.9399999999999995    0.0000000000000000
   0.0000000000000000    0.0000000000000000   10.9399999999999995
U O
32 63
direct
   0.0000000000000000    0.0000000000000000    0.0000000000000000 U
   0.0000000000000000    0.0000000000000000    0.4999999999999999 U
   0.0000000000000000    0.4999999999999999    0.0000000000000000 U
   0.0000000000000000    0.4999999999999999    0.4999999999999999 U
   0.4999999999999999    0.0000000000000000    0.0000000000000000 U
   0.4999999999999999    0.0000000000000000    0.4999999999999999 U
   0.4999999999999999    0.4999999999999999    0.0000000000000000 U
   0.4999999999999999    0.4999999999999999    0.4999999999999999 U
   0.0000000000000000    0.2499999999999999    0.2499999999999999 U
   0.0000000000000000    0.2499999999999999    0.7500000000000000 U
   0.0000000000000000    0.7500000000000000    0.2499999999999999 U
   0.0000000000000000    0.7500000000000000    0.7500000000000000 U
   0.4999999999999999    0.2499999999999999    0.2499999999999999 U
   0.4999999999999999    0.2499999999999999    0.7500000000000000 U
   0.4999999999999999    0.7500000000000000    0.2499999999999999 U
   0.4999999999999999    0.7500000000000000    0.7500000000000000 U
   0.2499999999999999    0.0000000000000000    0.2499999999999999 U
   0.2499999999999999    0.0000000000000000    0.7500000000000000 U
   0.2499999999999999    0.4999999999999999    0.2499999999999999 U
   0.2499999999999999    0.4999999999999999    0.7500000000000000 U
   0.7500000000000000    0.0000000000000000    0.2499999999999999 U
   0.7500000000000000    0.0000000000000000    0.7500000000000000 U
   0.7500000000000000    0.4999999999999999    0.2499999999999999 U
   0.7500000000000000    0.4999999999999999    0.7500000000000000 U
   0.2499999999999999    0.2499999999999999    0.0000000000000000 U
   0.2499999999999999    0.2499999999999999    0.4999999999999999 U
   0.2499999999999999    0.7500000000000000    0.0000000000000000 U
   0.2499999999999999    0.7500000000000000    0.4999999999999999 U
   0.7500000000000000    0.2499999999999999    0.0000000000000000 U
   0.7500000000000000    0.2499999999999999    0.4999999999999999 U
   0.7500000000000000    0.7500000000000000    0.0000000000000000 U
   0.7500000000000000    0.7500000000000000    0.4999999999999999 U
   0.1250000000000000    0.1250000000000000    0.6249999999999999 O
   0.1250000000000000    0.6249999999999999    0.1250000000000000 O
   0.1250000000000000    0.6249999999999999    0.6249999999999999 O
   0.6249999999999999    0.1250000000000000    0.1250000000000000 O
   0.6249999999999999    0.1250000000000000    0.6249999999999999 O
   0.6249999999999999    0.6249999999999999    0.1250000000000000 O
   0.6249999999999999    0.6249999999999999    0.6249999999999999 O
   0.1250000000000000    0.3750000000000000    0.3750000000000000 O
   0.1250000000000000    0.3750000000000000    0.8750000000000000 O
   0.1250000000000000    0.8750000000000000    0.3750000000000000 O
   0.1250000000000000    0.8750000000000000    0.8750000000000000 O
   0.6249999999999999    0.3750000000000000    0.3750000000000000 O
   0.6249999999999999    0.3750000000000000    0.8750000000000000 O
   0.6249999999999999    0.8750000000000000    0.3750000000000000 O
   0.6249999999999999    0.8750000000000000    0.8750000000000000 O
   0.3750000000000000    0.1250000000000000    0.3750000000000000 O
   0.3750000000000000    0.1250000000000000    0.8750000000000000 O
   0.3750000000000000    0.6249999999999999    0.3750000000000000 O
   0.3750000000000000    0.6249999999999999    0.8750000000000000 O
   0.8750000000000000    0.1250000000000000    0.3750000000000000 O
   0.8750000000000000    0.1250000000000000    0.8750000000000000 O
   0.8750000000000000    0.6249999999999999    0.3750000000000000 O
   0.8750000000000000    0.6249999999999999    0.8750000000000000 O
   0.3750000000000000    0.3750000000000000    0.1250000000000000 O
   0.3750000000000000    0.3750000000000000    0.6249999999999999 O
   0.3750000000000000    0.8750000000000000    0.1250000000000000 O
   0.3750000000000000    0.8750000000000000    0.6249999999999999 O
   0.8750000000000000    0.3750000000000000    0.1250000000000000 O
   0.8750000000000000    0.3750000000000000    0.6249999999999999 O
   0.8750000000000000    0.8750000000000000    0.1250000000000000 O
   0.8750000000000000    0.8750000000000000    0.6249999999999999 O
   0.1250000000000000    0.1250000000000000    0.3750000000000000 O
   0.1250000000000000    0.1250000000000000    0.8750000000000000 O
   0.1250000000000000    0.6249999999999999    0.3750000000000000 O
   0.1250000000000000    0.6249999999999999    0.8750000000000000 O
   0.6249999999999999    0.1250000000000000    0.3750000000000000 O
   0.6249999999999999    0.1250000000000000    0.8750000000000000 O
   0.6249999999999999    0.6249999999999999    0.3750000000000000 O
   0.6249999999999999    0.6249999999999999    0.8750000000000000 O
   0.1250000000000000    0.3750000000000000    0.1250000000000000 O
   0.1250000000000000    0.3750000000000000    0.6249999999999999 O
   0.1250000000000000    0.8750000000000000    0.1250000000000000 O
   0.1250000000000000    0.8750000000000000    0.6249999999999999 O
   0.6249999999999999    0.3750000000000000    0.1250000000000000 O
   0.6249999999999999    0.3750000000000000    0.6249999999999999 O
   0.6249999999999999    0.8750000000000000    0.1250000000000000 O
   0.6249999999999999    0.8750000000000000    0.6249999999999999 O
   0.3750000000000000    0.1250000000000000    0.1250000000000000 O
   0.3750000000000000    0.1250000000000000    0.6249999999999999 O
   0.3750000000000000    0.6249999999999999    0.1250000000000000 O
   0.3750000000000000    0.6249999999999999    0.6249999999999999 O
   0.8750000000000000    0.1250000000000000    0.1250000000000000 O
   0.8750000000000000    0.1250000000000000    0.6249999999999999 O
   0.8750000000000000    0.6249999999999999    0.1250000000000000 O
   0.8750000000000000    0.6249999999999999    0.6249999999999999 O
   0.3750000000000000    0.3750000000000000    0.3750000000000000 O
   0.3750000000000000    0.3750000000000000    0.8750000000000000 O
   0.3750000000000000    0.8750000000000000    0.3750000000000000 O
   0.3750000000000000    0.8750000000000000    0.8750000000000000 O
   0.8750000000000000    0.3750000000000000    0.3750000000000000 O
   0.8750000000000000    0.3750000000000000    0.8750000000000000 O
   0.8750000000000000    0.8750000000000000    0.3750000000000000 O
   0.8750000000000000    0.8750000000000000    0.8750000000000000 O
