# ============================================================
# VASP INCAR -- generated by vasp_utils.py
# SYSTEM = UO2_100
# calc_type = surface_sto
# ============================================================
SYSTEM  = UO2_100
PREC    = Accurate
ENCUT   = 650
EDIFF   = 1E-6
EDIFFG  = -0.02
ISMEAR  = 0
SIGMA   = 0.05
LREAL   = .FALSE.

# --- DFT+U (Dudarev) ---
LDAU      = .TRUE.
LDAUTYPE  = 2
LDAUL     = 3 -1
LDAUU     = 4.5 0.0
LDAUJ     = 0.5 0.0
LMAXMIX   = 4

# --- Magnetism (collinear AFM) ---
ISPIN   = 2
MAGMOM  = 4*-2.00 4*2.00 4*-2.00 4*2.00 4*-2.00 4*2.00 48*0.00

# --- Ionic relaxation ---
NSW     = 200
IBRION  = 2
ISIF    = 2

# --- Parallel ---
NCORE   = 8

# --- Output ---
LWAVE   = .TRUE.
LCHARG  = .TRUE.
LORBIT  = 11
