U4 O8
1.0
   5.4699999999999998    0.0000000000000000    0.0000000000000000
   0.0000000000000000    5.4699999999999998    0.0000000000000000
   0.0000000000000000    0.0000000000000000    5.4699999999999998
U O
4 8
direct
   0.0000000000000000    0.0000000000000000    0.0000000000000000 U
   0.0000000000000000    0.4999999999999999    0.4999999999999999 U
   0.4999999999999999    0.0000000000000000    0.4999999999999999 U
   0.4999999999999999    0.4999999999999999    0.0000000000000000 U
   0.2500000000000000    0.2500000000000000    0.2500000000000000 O
   0.2500000000000000    0.7500000000000000    0.7500000000000000 O
   0.7500000000000000    0.2500000000000000    0.7500000000000000 O
   0.7500000000000000    0.7500000000000000    0.2500000000000000 O
   0.2500000000000000    0.2500000000000000    0.7500000000000000 O
   0.2500000000000000    0.7500000000000000    0.2500000000000000 O
   0.7500000000000000    0.2500000000000000    0.2500000000000000 O
   0.7500000000000000    0.7500000000000000    0.7500000000000000 O
