Nb2 O4
1.0
   4.8399999999999999    0.0000000000000000    0.0000000000000003
   0.0000000000000008    4.8399999999999999    0.0000000000000003
   0.0000000000000000    0.0000000000000000    2.9900000000000002
Nb O
2 4
direct
   0.0000000000000000    0.0000000000000000    0.0000000000000000 Nb
   0.5000000000000000    0.5000000000000000    0.5000000000000000 Nb
   0.3050000000000000    0.3050000000000000   -0.0000000000000000 O
  -0.3050000000000000   -0.3050000000000000    0.0000000000000000 O
   0.1950000000000000    0.8049999999999999    0.5000000000000000 O
   0.8049999999999999    0.1950000000000000    0.5000000000000000 O
