# ============================================================
# VASP INCAR -- generated by vasp_utils.py
# SYSTEM = O2_molecule
# calc_type = bulk
# ============================================================
SYSTEM  = O2_molecule
PREC    = Accurate
ENCUT   = 650
EDIFF   = 1E-7
EDIFFG  = -0.01
ISMEAR  = 0
SIGMA   = 0.05
LREAL   = .FALSE.

# --- DFT+U (Dudarev) ---
LDAU      = .TRUE.
LDAUTYPE  = 2
LDAUL     = 3
LDAUU     = 4.5
LDAUJ     = 0.5
LMAXMIX   = 4

# --- Magnetism (collinear AFM) ---
ISPIN   = 2
MAGMOM  = 2*1.00

# --- Ionic relaxation ---
NSW     = 200
IBRION  = 2
ISIF    = 3

# --- Parallel ---
NCORE   = 8

# --- Output ---
LWAVE   = .TRUE.
LCHARG  = .TRUE.
LORBIT  = 11
