U22 Mo2 O48
1.0
  10.9399999999999995    0.0000000000000000    0.0000000000000007
   0.0000000000000009    5.4699999999999998   -5.4699999999999989
   0.0000000000000000    0.0000000000000000   43.7599999999999980
U Mo O
22 2 48
direct
   0.0000000000000000    0.4999999999999999    0.4062500000000000 U
   0.4999999999999999    0.0000000000000000    0.4062500000000001 U
   0.4999999999999998    0.4999999999999999    0.4062499999999999 U
   0.2499999999999999    0.0000000000000000    0.3437500000000001 U
   0.2499999999999999    0.4999999999999999    0.3437500000000001 U
   0.7500000000000000    0.0000000000000000    0.3437500000000001 U
   0.7500000000000000    0.4999999999999999    0.3437500000000000 U
   0.0000000000000000    0.0000000000000000    0.5312500000000000 U
   0.0000000000000000    0.4999999999999999    0.5312500000000000 U
   0.4999999999999999    0.0000000000000000    0.5312500000000000 U
   0.4999999999999998    0.4999999999999999    0.5312499999999999 U
   0.2499999999999999    0.0000000000000000    0.4687500000000001 U
   0.2499999999999999    0.4999999999999999    0.4687500000000001 U
   0.7500000000000000    0.0000000000000000    0.4687500000000001 U
   0.7500000000000000    0.4999999999999999    0.4687500000000001 U
   0.0000000000000000    0.4999999999999999    0.6562500000000001 U
   0.4999999999999999    0.0000000000000000    0.6562500000000001 U
   0.4999999999999998    0.4999999999999999    0.6562500000000001 U
   0.2499999999999999    0.0000000000000000    0.5937500000000001 U
   0.2499999999999999    0.4999999999999999    0.5937500000000001 U
   0.7500000000000000    0.0000000000000000    0.5937500000000001 U
   0.7500000000000000    0.4999999999999999    0.5937500000000001 U
   0.0000000000000000    0.0000000000000000    0.4062500000000000 Mo
   0.0000000000000000    0.0000000000000000    0.6562500000000001 Mo
   0.3750000000000000    0.2499999999999999    0.3437500000000001 O
   0.3749999999999998    0.7500000000000000    0.3437500000000001 O
   0.8750000000000000    0.2499999999999999    0.3437500000000000 O
   0.8749999999999996    0.7500000000000000    0.3437500000000001 O
   0.1250000000000000    0.2499999999999999    0.4062500000000001 O
   0.1250000000000000    0.7500000000000000    0.4062500000000001 O
   0.6249999999999999    0.2499999999999999    0.4062500000000001 O
   0.6249999999999998    0.7500000000000000    0.4062500000000000 O
   0.1250000000000000    0.2499999999999999    0.3437500000000001 O
   0.1250000000000000    0.7500000000000000    0.3437500000000001 O
   0.6249999999999999    0.2499999999999999    0.3437500000000001 O
   0.6249999999999998    0.7500000000000000    0.3437500000000001 O
   0.3750000000000000    0.2499999999999999    0.4062500000000001 O
   0.3749999999999998    0.7500000000000000    0.4062500000000001 O
   0.8750000000000000    0.2499999999999999    0.4062500000000001 O
   0.8749999999999996    0.7500000000000000    0.4062500000000000 O
   0.3750000000000000    0.2499999999999999    0.4687500000000001 O
   0.3749999999999998    0.7500000000000000    0.4687500000000001 O
   0.8750000000000000    0.2499999999999999    0.4687500000000001 O
   0.8749999999999996    0.7500000000000000    0.4687500000000001 O
   0.1250000000000000    0.2499999999999999    0.5312499999999999 O
   0.1250000000000000    0.7500000000000000    0.5312500000000000 O
   0.6249999999999999    0.2499999999999999    0.5312499999999999 O
   0.6249999999999998    0.7500000000000000    0.5312500000000000 O
   0.1250000000000000    0.2499999999999999    0.4687500000000001 O
   0.1250000000000000    0.7500000000000000    0.4687500000000001 O
   0.6249999999999999    0.2499999999999999    0.4687500000000001 O
   0.6249999999999998    0.7500000000000000    0.4687500000000001 O
   0.3750000000000000    0.2499999999999999    0.5312499999999999 O
   0.3749999999999998    0.7500000000000000    0.5312500000000000 O
   0.8750000000000000    0.2499999999999999    0.5312499999999999 O
   0.8749999999999996    0.7500000000000000    0.5312500000000000 O
   0.3750000000000000    0.2499999999999999    0.5937500000000001 O
   0.3749999999999998    0.7500000000000000    0.5937500000000001 O
   0.8750000000000000    0.2499999999999999    0.5937500000000001 O
   0.8749999999999996    0.7500000000000000    0.5937500000000001 O
   0.1250000000000000    0.2499999999999999    0.6562500000000001 O
   0.1250000000000000    0.7500000000000000    0.6562500000000001 O
   0.6249999999999999    0.2499999999999999    0.6562500000000001 O
   0.6249999999999998    0.7500000000000000    0.6562500000000001 O
   0.1250000000000000    0.2499999999999999    0.5937500000000001 O
   0.1250000000000000    0.7500000000000000    0.5937500000000001 O
   0.6249999999999999    0.2499999999999999    0.5937500000000001 O
   0.6249999999999998    0.7500000000000000    0.5937500000000001 O
   0.3750000000000000    0.2499999999999999    0.6562500000000001 O
   0.3749999999999998    0.7500000000000000    0.6562500000000001 O
   0.8750000000000000    0.2499999999999999    0.6562500000000001 O
   0.8749999999999996    0.7500000000000000    0.6562500000000001 O
