U22 Ti2 O50
1.0
   7.7357481861808290    0.0000000000000000    0.0000000000000005
  -7.7357481861808290    7.7357481861808299    0.0000000000000007
   0.0000000000000000    0.0000000000000000   38.2899999999999991
U Ti O
22 2 50
direct
   0.0000000000000000    0.0000000000000000    0.3970893540095253 U
   0.5000000000000000    0.0000000000000000    0.3970893540095253 U
   0.5000000000000000    0.5000000000000000    0.3970893540095253 U
  -0.0000000000000000    0.2500000000000000    0.3256607825809538 U
   0.9999999999999998    0.7499999999999999    0.3256607825809538 U
   0.4999999999999999    0.2500000000000000    0.3256607825809538 U
   0.4999999999999999    0.7499999999999999    0.3256607825809538 U
   0.0000000000000000    0.0000000000000000    0.5399464968666681 U
  -0.0000000000000000    0.5000000000000000    0.5399464968666681 U
   0.5000000000000000    0.0000000000000000    0.5399464968666681 U
   0.5000000000000000    0.5000000000000000    0.5399464968666681 U
  -0.0000000000000000    0.2500000000000000    0.4685179254380966 U
   0.9999999999999998    0.7499999999999999    0.4685179254380966 U
   0.4999999999999999    0.2500000000000000    0.4685179254380966 U
   0.4999999999999999    0.7499999999999999    0.4685179254380966 U
   0.0000000000000000    0.0000000000000000    0.6828036397238110 U
   0.5000000000000000    0.0000000000000000    0.6828036397238110 U
   0.5000000000000000    0.5000000000000000    0.6828036397238110 U
  -0.0000000000000000    0.2500000000000000    0.6113750682952395 U
   0.9999999999999998    0.7499999999999999    0.6113750682952395 U
   0.4999999999999999    0.2500000000000000    0.6113750682952395 U
   0.4999999999999999    0.7499999999999999    0.6113750682952395 U
  -0.0000000000000000    0.5000000000000000    0.3970893540095253 Ti
  -0.0000000000000000    0.5000000000000000    0.6828036397238110 Ti
   0.2500000000000000    0.2500000000000000    0.2899464968666681 O
   0.2500000000000001    0.7500000000000000    0.2899464968666681 O
   0.7500000000000003    0.2500000000000000    0.2899464968666681 O
   0.7500000000000003    0.7500000000000000    0.2899464968666681 O
   0.2500000000000000    0.0000000000000000    0.3613750682952396 O
   0.2499999999999999    0.5000000000000000    0.3613750682952396 O
   0.7500000000000004    0.0000000000000000    0.3613750682952396 O
   0.7500000000000000    0.5000000000000000    0.3613750682952396 O
   0.2500000000000000    0.0000000000000000    0.2899464968666681 O
   0.2499999999999999    0.5000000000000000    0.2899464968666681 O
   0.7500000000000004    0.0000000000000000    0.2899464968666681 O
   0.7500000000000000    0.5000000000000000    0.2899464968666681 O
   0.2500000000000000    0.2500000000000000    0.3613750682952396 O
   0.2500000000000001    0.7500000000000000    0.3613750682952396 O
   0.7500000000000003    0.2500000000000000    0.3613750682952396 O
   0.7500000000000003    0.7500000000000000    0.3613750682952396 O
   0.2500000000000000    0.2500000000000000    0.4328036397238110 O
   0.2500000000000001    0.7500000000000000    0.4328036397238110 O
   0.7500000000000003    0.2500000000000000    0.4328036397238110 O
   0.7500000000000003    0.7500000000000000    0.4328036397238110 O
   0.2500000000000000    0.0000000000000000    0.5042322111523825 O
   0.2499999999999999    0.5000000000000000    0.5042322111523825 O
   0.7500000000000004    0.0000000000000000    0.5042322111523825 O
   0.7500000000000000    0.5000000000000000    0.5042322111523825 O
   0.2500000000000000    0.0000000000000000    0.4328036397238110 O
   0.2499999999999999    0.5000000000000000    0.4328036397238110 O
   0.7500000000000004    0.0000000000000000    0.4328036397238110 O
   0.7500000000000000    0.5000000000000000    0.4328036397238110 O
   0.2500000000000000    0.2500000000000000    0.5042322111523825 O
   0.2500000000000001    0.7500000000000000    0.5042322111523825 O
   0.7500000000000003    0.2500000000000000    0.5042322111523825 O
   0.7500000000000003    0.7500000000000000    0.5042322111523825 O
   0.2500000000000000    0.2500000000000000    0.5756607825809539 O
   0.2500000000000001    0.7500000000000000    0.5756607825809539 O
   0.7500000000000003    0.2500000000000000    0.5756607825809539 O
   0.7500000000000003    0.7500000000000000    0.5756607825809539 O
   0.2500000000000000    0.0000000000000000    0.6470893540095253 O
   0.2499999999999999    0.5000000000000000    0.6470893540095253 O
   0.7500000000000004    0.0000000000000000    0.6470893540095253 O
   0.7500000000000000    0.5000000000000000    0.6470893540095253 O
   0.2500000000000000    0.0000000000000000    0.5756607825809539 O
   0.2499999999999999    0.5000000000000000    0.5756607825809539 O
   0.7500000000000004    0.0000000000000000    0.5756607825809539 O
   0.7500000000000000    0.5000000000000000    0.5756607825809539 O
   0.2500000000000000    0.2500000000000000    0.6470893540095253 O
   0.2500000000000001    0.7500000000000000    0.6470893540095253 O
   0.7500000000000003    0.2500000000000000    0.6470893540095253 O
   0.7500000000000003    0.7500000000000000    0.6470893540095253 O
   0.0000000000000000    0.0000000000000000    0.9328036397238111 O
  -0.0000000000000000    0.2500000000000000    0.0756607825809538 O
