U24 O48
1.0
   5.4699999999999998    0.0000000000000000   -5.4699999999999989
   0.0000000000000021    5.4699999999999998   -5.4699999999999989
   0.0000000000000000    0.0000000000000000   65.6400000000000006
U O
24 48
direct
   0.0000000000000000    0.4999999999999999    0.2966042463444461 U
   0.0000000000000000    0.9999999999999998    0.2966042463444461 U
   0.4999999999999999    0.4999999999999999    0.2966042463444461 U
   0.4999999999999999    0.9999999999999998    0.2966042463444461 U
   0.0000000000000000    0.4999999999999999    0.3799375796777794 U
   0.0000000000000000    0.9999999999999998    0.3799375796777794 U
   0.4999999999999999    0.4999999999999999    0.3799375796777794 U
   0.4999999999999999    0.9999999999999998    0.3799375796777794 U
   0.0000000000000000    0.4999999999999999    0.4632709130111127 U
   0.0000000000000000    0.9999999999999998    0.4632709130111127 U
   0.4999999999999999    0.4999999999999999    0.4632709130111127 U
   0.4999999999999999    0.9999999999999998    0.4632709130111127 U
   0.0000000000000000    0.4999999999999999    0.5466042463444460 U
   0.0000000000000000    0.9999999999999998    0.5466042463444460 U
   0.4999999999999999    0.4999999999999999    0.5466042463444460 U
   0.4999999999999999    0.9999999999999998    0.5466042463444460 U
   0.0000000000000000    0.4999999999999999    0.6299375796777794 U
   0.0000000000000000    0.9999999999999998    0.6299375796777795 U
   0.4999999999999999    0.4999999999999999    0.6299375796777795 U
   0.4999999999999999    0.9999999999999998    0.6299375796777795 U
   0.0000000000000000    0.4999999999999999    0.7132709130111128 U
   0.0000000000000000    0.9999999999999998    0.7132709130111128 U
   0.4999999999999999    0.4999999999999999    0.7132709130111128 U
   0.4999999999999999    0.9999999999999998    0.7132709130111128 U
   0.2500000000000001    0.2499999999999999    0.2757709130111127 O
   0.2500000000000002    0.7499999999999997    0.2757709130111127 O
   0.7500000000000000    0.2499999999999999    0.2757709130111127 O
   0.7500000000000000    0.7499999999999997    0.2757709130111127 O
   0.2500000000000001    0.2499999999999999    0.2341042463444461 O
   0.2500000000000002    0.7499999999999997    0.2341042463444460 O
   0.7500000000000000    0.2499999999999999    0.2341042463444461 O
   0.7500000000000000    0.7499999999999997    0.2341042463444461 O
   0.2500000000000001    0.2499999999999999    0.3591042463444460 O
   0.2500000000000002    0.7499999999999997    0.3591042463444460 O
   0.7500000000000000    0.2499999999999999    0.3591042463444460 O
   0.7500000000000000    0.7499999999999997    0.3591042463444460 O
   0.2500000000000001    0.2499999999999999    0.3174375796777795 O
   0.2500000000000002    0.7499999999999997    0.3174375796777795 O
   0.7500000000000000    0.2499999999999999    0.3174375796777795 O
   0.7500000000000000    0.7499999999999997    0.3174375796777794 O
   0.2500000000000001    0.2499999999999999    0.4424375796777794 O
   0.2500000000000002    0.7499999999999997    0.4424375796777794 O
   0.7500000000000000    0.2499999999999999    0.4424375796777794 O
   0.7500000000000000    0.7499999999999997    0.4424375796777795 O
   0.2500000000000001    0.2499999999999999    0.4007709130111128 O
   0.2500000000000002    0.7499999999999997    0.4007709130111128 O
   0.7500000000000000    0.2499999999999999    0.4007709130111128 O
   0.7500000000000000    0.7499999999999997    0.4007709130111128 O
   0.2500000000000001    0.2499999999999999    0.5257709130111128 O
   0.2500000000000002    0.7499999999999997    0.5257709130111128 O
   0.7500000000000000    0.2499999999999999    0.5257709130111128 O
   0.7500000000000000    0.7499999999999997    0.5257709130111128 O
   0.2500000000000001    0.2499999999999999    0.4841042463444462 O
   0.2500000000000002    0.7499999999999997    0.4841042463444462 O
   0.7500000000000000    0.2499999999999999    0.4841042463444462 O
   0.7500000000000000    0.7499999999999997    0.4841042463444462 O
   0.2500000000000001    0.2499999999999999    0.6091042463444460 O
   0.2500000000000002    0.7499999999999997    0.6091042463444460 O
   0.7500000000000000    0.2499999999999999    0.6091042463444460 O
   0.7500000000000000    0.7499999999999997    0.6091042463444460 O
   0.2500000000000001    0.2499999999999999    0.5674375796777794 O
   0.2500000000000002    0.7499999999999997    0.5674375796777794 O
   0.7500000000000000    0.2499999999999999    0.5674375796777794 O
   0.7500000000000000    0.7499999999999997    0.5674375796777794 O
   0.2500000000000001    0.2499999999999999    0.6924375796777796 O
   0.2500000000000002    0.7499999999999997    0.6924375796777795 O
   0.7500000000000000    0.2499999999999999    0.6924375796777796 O
   0.7500000000000000    0.7499999999999997    0.6924375796777795 O
   0.2500000000000001    0.2499999999999999    0.6507709130111128 O
   0.2500000000000002    0.7499999999999997    0.6507709130111128 O
   0.7500000000000000    0.2499999999999999    0.6507709130111128 O
   0.7500000000000000    0.7499999999999997    0.6507709130111128 O
